p tw 128 21121 2 
1 66 
1 67 
1 69 
1 71 
1 74 
1 75 
1 77 
1 79 
1 81 
1 83 
1 85 
1 88 
1 89 
1 92 
1 93 
1 95 
1 97 
1 99 
1 101 
1 103 
1 105 
1 107 
1 109 
1 112 
1 114 
1 115 
1 117 
1 119 
1 122 
1 123 
1 125 
1 128 
2 65 
2 68 
2 70 
2 72 
2 73 
2 76 
2 78 
2 80 
2 82 
2 84 
2 86 
2 87 
2 90 
2 91 
2 94 
2 96 
2 98 
2 100 
2 102 
2 104 
2 106 
2 108 
2 110 
2 111 
2 113 
2 116 
2 118 
2 120 
2 121 
2 124 
2 126 
2 127 
3 4 
3 65 
3 67 
3 69 
3 71 
3 74 
3 76 
3 78 
3 79 
3 81 
3 84 
3 85 
3 88 
3 90 
3 92 
3 93 
3 96 
3 98 
3 99 
3 101 
3 104 
3 106 
3 108 
3 109 
3 111 
3 113 
3 116 
3 117 
3 119 
3 121 
3 124 
3 126 
3 128 
4 66 
4 68 
4 70 
4 72 
4 73 
4 75 
4 77 
4 80 
4 82 
4 83 
4 86 
4 87 
4 89 
4 91 
4 94 
4 95 
4 97 
4 100 
4 102 
4 103 
4 105 
4 107 
4 110 
4 112 
4 114 
4 115 
4 118 
4 120 
4 122 
4 123 
4 125 
4 127 
5 6 
5 65 
5 68 
5 69 
5 71 
5 74 
5 75 
5 77 
5 79 
5 81 
5 83 
5 86 
5 87 
5 90 
5 92 
5 94 
5 96 
5 98 
5 100 
5 102 
5 103 
5 105 
5 108 
5 109 
5 111 
5 114 
5 115 
5 117 
5 120 
5 122 
5 124 
5 126 
5 127 
6 66 
6 67 
6 70 
6 72 
6 73 
6 76 
6 78 
6 80 
6 82 
6 84 
6 85 
6 88 
6 89 
6 91 
6 93 
6 95 
6 97 
6 99 
6 101 
6 104 
6 106 
6 107 
6 110 
6 112 
6 113 
6 116 
6 118 
6 119 
6 121 
6 123 
6 125 
6 128 
7 8 
7 66 
7 67 
7 70 
7 72 
7 74 
7 75 
7 78 
7 79 
7 82 
7 84 
7 86 
7 87 
7 90 
7 92 
7 93 
7 96 
7 98 
7 99 
7 102 
7 104 
7 105 
7 107 
7 109 
7 111 
7 113 
7 115 
7 118 
7 119 
7 122 
7 123 
7 125 
7 127 
8 65 
8 68 
8 69 
8 71 
8 73 
8 76 
8 77 
8 80 
8 81 
8 83 
8 85 
8 88 
8 89 
8 91 
8 94 
8 95 
8 97 
8 100 
8 101 
8 103 
8 106 
8 108 
8 110 
8 112 
8 114 
8 116 
8 117 
8 120 
8 121 
8 124 
8 126 
8 128 
9 10 
9 66 
9 68 
9 69 
9 72 
9 74 
9 76 
9 78 
9 80 
9 81 
9 84 
9 85 
9 88 
9 90 
9 92 
9 94 
9 96 
9 98 
9 99 
9 102 
9 103 
9 105 
9 107 
9 110 
9 112 
9 114 
9 116 
9 118 
9 120 
9 122 
9 123 
9 126 
9 128 
10 65 
10 67 
10 70 
10 71 
10 73 
10 75 
10 77 
10 79 
10 82 
10 83 
10 86 
10 87 
10 89 
10 91 
10 93 
10 95 
10 97 
10 100 
10 101 
10 104 
10 106 
10 108 
10 109 
10 111 
10 113 
10 115 
10 117 
10 119 
10 121 
10 124 
10 125 
10 127 
11 12 
11 66 
11 68 
11 70 
11 71 
11 74 
11 75 
11 78 
11 80 
11 82 
11 83 
11 86 
11 88 
11 90 
11 92 
11 94 
11 96 
11 97 
11 100 
11 101 
11 104 
11 106 
11 108 
11 109 
11 112 
11 114 
11 116 
11 118 
11 119 
11 122 
11 124 
11 125 
11 128 
12 65 
12 67 
12 69 
12 72 
12 73 
12 76 
12 77 
12 79 
12 81 
12 84 
12 85 
12 87 
12 89 
12 91 
12 93 
12 95 
12 98 
12 99 
12 102 
12 103 
12 105 
12 107 
12 110 
12 111 
12 113 
12 115 
12 117 
12 120 
12 121 
12 123 
12 126 
12 127 
13 14 
13 65 
13 68 
13 70 
13 71 
13 73 
13 75 
13 78 
13 80 
13 82 
13 84 
13 86 
13 88 
13 89 
13 92 
13 94 
13 95 
13 98 
13 99 
13 101 
13 103 
13 106 
13 107 
13 109 
13 111 
13 113 
13 115 
13 117 
13 120 
13 122 
13 123 
13 126 
13 128 
14 66 
14 67 
14 69 
14 72 
14 74 
14 76 
14 77 
14 79 
14 81 
14 83 
14 85 
14 87 
14 90 
14 91 
14 93 
14 96 
14 97 
14 100 
14 102 
14 104 
14 105 
14 108 
14 110 
14 112 
14 114 
14 116 
14 118 
14 119 
14 121 
14 124 
14 125 
14 127 
15 16 
15 66 
15 67 
15 69 
15 71 
15 73 
15 76 
15 78 
15 79 
15 82 
15 83 
15 86 
15 88 
15 90 
15 91 
15 93 
15 96 
15 98 
15 100 
15 101 
15 103 
15 106 
15 107 
15 109 
15 112 
15 114 
15 115 
15 118 
15 120 
15 121 
15 123 
15 126 
15 127 
16 65 
16 68 
16 70 
16 72 
16 74 
16 75 
16 77 
16 80 
16 81 
16 84 
16 85 
16 87 
16 89 
16 92 
16 94 
16 95 
16 97 
16 99 
16 102 
16 104 
16 105 
16 108 
16 110 
16 111 
16 113 
16 116 
16 117 
16 119 
16 122 
16 124 
16 125 
16 128 
17 18 
17 65 
17 67 
17 70 
17 71 
17 74 
17 75 
17 77 
17 80 
17 82 
17 83 
17 85 
17 88 
17 90 
17 91 
17 93 
17 95 
17 98 
17 99 
17 102 
17 103 
17 106 
17 107 
17 110 
17 111 
17 114 
17 116 
17 118 
17 119 
17 122 
17 124 
17 126 
17 127 
18 66 
18 68 
18 69 
18 72 
18 73 
18 76 
18 78 
18 79 
18 81 
18 84 
18 86 
18 87 
18 89 
18 92 
18 94 
18 96 
18 97 
18 100 
18 101 
18 104 
18 105 
18 108 
18 109 
18 112 
18 113 
18 115 
18 117 
18 120 
18 121 
18 123 
18 125 
18 128 
19 20 
19 65 
19 67 
19 69 
19 72 
19 74 
19 76 
19 77 
19 80 
19 82 
19 83 
19 86 
19 87 
19 89 
19 92 
19 94 
19 95 
19 98 
19 100 
19 101 
19 104 
19 105 
19 107 
19 109 
19 111 
19 114 
19 116 
19 118 
19 119 
19 121 
19 123 
19 126 
19 128 
20 66 
20 68 
20 70 
20 71 
20 73 
20 75 
20 78 
20 79 
20 81 
20 84 
20 85 
20 88 
20 90 
20 91 
20 93 
20 96 
20 97 
20 99 
20 102 
20 103 
20 106 
20 108 
20 110 
20 112 
20 113 
20 115 
20 117 
20 120 
20 122 
20 124 
20 125 
20 127 
21 22 
21 66 
21 68 
21 69 
21 72 
21 73 
21 75 
21 77 
21 80 
21 82 
21 84 
21 85 
21 88 
21 89 
21 92 
21 93 
21 96 
21 98 
21 100 
21 102 
21 103 
21 106 
21 108 
21 109 
21 111 
21 114 
21 116 
21 117 
21 119 
21 121 
21 123 
21 125 
21 127 
22 65 
22 67 
22 70 
22 71 
22 74 
22 76 
22 78 
22 79 
22 81 
22 83 
22 86 
22 87 
22 90 
22 91 
22 94 
22 95 
22 97 
22 99 
22 101 
22 104 
22 105 
22 107 
22 110 
22 112 
22 113 
22 115 
22 118 
22 120 
22 122 
22 124 
22 126 
22 128 
23 24 
23 66 
23 68 
23 69 
23 71 
23 73 
23 76 
23 78 
23 80 
23 82 
23 84 
23 85 
23 87 
23 90 
23 92 
23 93 
23 95 
23 97 
23 100 
23 101 
23 104 
23 105 
23 107 
23 110 
23 111 
23 114 
23 115 
23 117 
23 119 
23 122 
23 124 
23 126 
23 127 
24 65 
24 67 
24 70 
24 72 
24 74 
24 75 
24 77 
24 79 
24 81 
24 83 
24 86 
24 88 
24 89 
24 91 
24 94 
24 96 
24 98 
24 99 
24 102 
24 103 
24 106 
24 108 
24 109 
24 112 
24 113 
24 116 
24 118 
24 120 
24 121 
24 123 
24 125 
24 128 
25 26 
25 65 
25 68 
25 70 
25 72 
25 73 
25 75 
25 78 
25 79 
25 82 
25 83 
25 85 
25 87 
25 89 
25 92 
25 93 
25 96 
25 98 
25 99 
25 101 
25 103 
25 105 
25 108 
25 110 
25 112 
25 114 
25 115 
25 118 
25 119 
25 121 
25 124 
25 126 
25 128 
26 66 
26 67 
26 69 
26 71 
26 74 
26 76 
26 77 
26 80 
26 81 
26 84 
26 86 
26 88 
26 90 
26 91 
26 94 
26 95 
26 97 
26 100 
26 102 
26 104 
26 106 
26 107 
26 109 
26 111 
26 113 
26 116 
26 117 
26 120 
26 122 
26 123 
26 125 
26 127 
27 28 
27 65 
27 67 
27 70 
27 71 
27 73 
27 76 
27 78 
27 80 
27 81 
27 84 
27 86 
27 87 
27 89 
27 91 
27 93 
27 96 
27 98 
27 100 
27 102 
27 103 
27 105 
27 107 
27 109 
27 112 
27 114 
27 116 
27 117 
27 119 
27 122 
27 124 
27 125 
27 128 
28 66 
28 68 
28 69 
28 72 
28 74 
28 75 
28 77 
28 79 
28 82 
28 83 
28 85 
28 88 
28 90 
28 92 
28 94 
28 95 
28 97 
28 99 
28 101 
28 104 
28 106 
28 108 
28 110 
28 111 
28 113 
28 115 
28 118 
28 120 
28 121 
28 123 
28 126 
28 127 
29 30 
29 65 
29 67 
29 70 
29 72 
29 74 
29 76 
29 77 
29 80 
29 82 
29 84 
29 85 
29 87 
29 90 
29 92 
29 94 
29 96 
29 97 
29 99 
29 101 
29 103 
29 106 
29 107 
29 109 
29 112 
29 114 
29 115 
29 117 
29 120 
29 121 
29 124 
29 125 
29 127 
30 66 
30 68 
30 69 
30 71 
30 73 
30 75 
30 78 
30 79 
30 81 
30 83 
30 86 
30 88 
30 89 
30 91 
30 93 
30 95 
30 98 
30 100 
30 102 
30 104 
30 105 
30 108 
30 110 
30 111 
30 113 
30 116 
30 118 
30 119 
30 122 
30 123 
30 126 
30 128 
31 32 
31 66 
31 67 
31 70 
31 71 
31 74 
31 75 
31 78 
31 79 
31 82 
31 84 
31 85 
31 87 
31 90 
31 91 
31 94 
31 95 
31 98 
31 100 
31 101 
31 103 
31 105 
31 108 
31 110 
31 111 
31 114 
31 116 
31 117 
31 120 
31 121 
31 123 
31 125 
31 128 
32 65 
32 68 
32 69 
32 72 
32 73 
32 76 
32 77 
32 80 
32 81 
32 83 
32 86 
32 88 
32 89 
32 92 
32 93 
32 96 
32 97 
32 99 
32 102 
32 104 
32 106 
32 107 
32 109 
32 112 
32 113 
32 115 
32 118 
32 119 
32 122 
32 124 
32 126 
32 127 
33 34 
33 66 
33 68 
33 69 
33 71 
33 74 
33 76 
33 78 
33 79 
33 82 
33 83 
33 86 
33 87 
33 89 
33 92 
33 94 
33 95 
33 98 
33 99 
33 102 
33 103 
33 106 
33 107 
33 110 
33 112 
33 113 
33 116 
33 117 
33 119 
33 121 
33 124 
33 125 
33 127 
34 65 
34 67 
34 70 
34 72 
34 73 
34 75 
34 77 
34 80 
34 81 
34 84 
34 85 
34 88 
34 90 
34 91 
34 93 
34 96 
34 97 
34 100 
34 101 
34 104 
34 105 
34 108 
34 109 
34 111 
34 114 
34 115 
34 118 
34 120 
34 122 
34 123 
34 126 
34 128 
35 36 
35 65 
35 67 
35 70 
35 72 
35 73 
35 76 
35 78 
35 79 
35 82 
35 83 
35 85 
35 88 
35 90 
35 92 
35 94 
35 95 
35 97 
35 100 
35 102 
35 103 
35 105 
35 108 
35 109 
35 112 
35 113 
35 116 
35 117 
35 119 
35 122 
35 123 
35 126 
35 127 
36 66 
36 68 
36 69 
36 71 
36 74 
36 75 
36 77 
36 80 
36 81 
36 84 
36 86 
36 87 
36 89 
36 91 
36 93 
36 96 
36 98 
36 99 
36 101 
36 104 
36 106 
36 107 
36 110 
36 111 
36 114 
36 115 
36 118 
36 120 
36 121 
36 124 
36 125 
36 128 
37 38 
37 66 
37 68 
37 70 
37 71 
37 74 
37 76 
37 77 
37 80 
37 82 
37 83 
37 85 
37 87 
37 89 
37 91 
37 93 
37 96 
37 98 
37 99 
37 101 
37 104 
37 105 
37 108 
37 109 
37 112 
37 113 
37 116 
37 117 
37 120 
37 122 
37 123 
37 126 
37 127 
38 65 
38 67 
38 69 
38 72 
38 73 
38 75 
38 78 
38 79 
38 81 
38 84 
38 86 
38 88 
38 90 
38 92 
38 94 
38 95 
38 97 
38 100 
38 102 
38 103 
38 106 
38 107 
38 110 
38 111 
38 114 
38 115 
38 118 
38 119 
38 121 
38 124 
38 125 
38 128 
39 40 
39 66 
39 67 
39 70 
39 71 
39 73 
39 76 
39 77 
39 79 
39 81 
39 84 
39 86 
39 87 
39 89 
39 92 
39 94 
39 96 
39 97 
39 99 
39 101 
39 103 
39 106 
39 108 
39 110 
39 111 
39 114 
39 116 
39 118 
39 119 
39 122 
39 123 
39 126 
39 127 
40 65 
40 68 
40 69 
40 72 
40 74 
40 75 
40 78 
40 80 
40 82 
40 83 
40 85 
40 88 
40 90 
40 91 
40 93 
40 95 
40 98 
40 100 
40 102 
40 104 
40 105 
40 107 
40 109 
40 112 
40 113 
40 115 
40 117 
40 120 
40 121 
40 124 
40 125 
40 128 
41 42 
41 66 
41 68 
41 70 
41 72 
41 73 
41 75 
41 77 
41 79 
41 81 
41 84 
41 86 
41 88 
41 90 
41 91 
41 94 
41 95 
41 98 
41 99 
41 101 
41 104 
41 105 
41 107 
41 109 
41 112 
41 114 
41 116 
41 117 
41 119 
41 121 
41 124 
41 126 
41 127 
42 65 
42 67 
42 69 
42 71 
42 74 
42 76 
42 78 
42 80 
42 82 
42 83 
42 85 
42 87 
42 89 
42 92 
42 93 
42 96 
42 97 
42 100 
42 102 
42 103 
42 106 
42 108 
42 110 
42 111 
42 113 
42 115 
42 118 
42 120 
42 122 
42 123 
42 125 
42 128 
43 44 
43 65 
43 67 
43 69 
43 71 
43 73 
43 75 
43 77 
43 79 
43 82 
43 84 
43 85 
43 88 
43 89 
43 92 
43 94 
43 96 
43 98 
43 100 
43 101 
43 104 
43 105 
43 107 
43 110 
43 112 
43 113 
43 116 
43 118 
43 120 
43 122 
43 124 
43 125 
43 127 
44 66 
44 68 
44 70 
44 72 
44 74 
44 76 
44 78 
44 80 
44 81 
44 83 
44 86 
44 87 
44 90 
44 91 
44 93 
44 95 
44 97 
44 99 
44 102 
44 103 
44 106 
44 108 
44 109 
44 111 
44 114 
44 115 
44 117 
44 119 
44 121 
44 123 
44 126 
44 128 
45 46 
45 65 
45 68 
45 70 
45 71 
45 74 
45 76 
45 77 
45 80 
45 81 
45 84 
45 86 
45 88 
45 90 
45 92 
45 93 
45 95 
45 98 
45 100 
45 101 
45 103 
45 105 
45 108 
45 110 
45 112 
45 113 
45 115 
45 118 
45 119 
45 121 
45 123 
45 125 
45 127 
46 66 
46 67 
46 69 
46 72 
46 73 
46 75 
46 78 
46 79 
46 82 
46 83 
46 85 
46 87 
46 89 
46 91 
46 94 
46 96 
46 97 
46 99 
46 102 
46 104 
46 106 
46 107 
46 109 
46 111 
46 114 
46 116 
46 117 
46 120 
46 122 
46 124 
46 126 
46 128 
47 48 
47 65 
47 68 
47 69 
47 72 
47 74 
47 76 
47 78 
47 79 
47 82 
47 84 
47 86 
47 88 
47 89 
47 91 
47 93 
47 95 
47 97 
47 99 
47 101 
47 103 
47 105 
47 108 
47 109 
47 111 
47 114 
47 116 
47 118 
47 120 
47 122 
47 124 
47 125 
47 127 
48 66 
48 67 
48 70 
48 71 
48 73 
48 75 
48 77 
48 80 
48 81 
48 83 
48 85 
48 87 
48 90 
48 92 
48 94 
48 96 
48 98 
48 100 
48 102 
48 104 
48 106 
48 107 
48 110 
48 112 
48 113 
48 115 
48 117 
48 119 
48 121 
48 123 
48 126 
48 128 
49 50 
49 66 
49 68 
49 70 
49 72 
49 73 
49 76 
49 77 
49 79 
49 81 
49 83 
49 85 
49 87 
49 90 
49 92 
49 93 
49 95 
49 98 
49 100 
49 101 
49 103 
49 106 
49 107 
49 109 
49 111 
49 113 
49 116 
49 118 
49 120 
49 122 
49 124 
49 125 
49 128 
50 65 
50 67 
50 69 
50 71 
50 74 
50 75 
50 78 
50 80 
50 82 
50 84 
50 86 
50 88 
50 89 
50 91 
50 94 
50 96 
50 97 
50 99 
50 102 
50 104 
50 105 
50 108 
50 110 
50 112 
50 114 
50 115 
50 117 
50 119 
50 121 
50 123 
50 126 
50 127 
51 52 
51 65 
51 68 
51 69 
51 72 
51 74 
51 75 
51 77 
51 79 
51 82 
51 84 
51 86 
51 87 
51 90 
51 91 
51 93 
51 96 
51 97 
51 100 
51 101 
51 103 
51 106 
51 107 
51 110 
51 112 
51 113 
51 116 
51 117 
51 119 
51 122 
51 123 
51 126 
51 128 
52 66 
52 67 
52 70 
52 71 
52 73 
52 76 
52 78 
52 80 
52 81 
52 83 
52 85 
52 88 
52 89 
52 92 
52 94 
52 95 
52 98 
52 99 
52 102 
52 104 
52 105 
52 108 
52 109 
52 111 
52 114 
52 115 
52 118 
52 120 
52 121 
52 124 
52 125 
52 127 
53 54 
53 66 
53 67 
53 70 
53 72 
53 74 
53 76 
53 77 
53 79 
53 82 
53 84 
53 86 
53 88 
53 89 
53 92 
53 93 
53 95 
53 98 
53 100 
53 102 
53 104 
53 106 
53 108 
53 110 
53 112 
53 114 
53 115 
53 117 
53 120 
53 122 
53 124 
53 126 
53 128 
54 65 
54 68 
54 69 
54 71 
54 73 
54 75 
54 78 
54 80 
54 81 
54 83 
54 85 
54 87 
54 90 
54 91 
54 94 
54 96 
54 97 
54 99 
54 101 
54 103 
54 105 
54 107 
54 109 
54 111 
54 113 
54 116 
54 118 
54 119 
54 121 
54 123 
54 125 
54 127 
55 56 
55 66 
55 68 
55 70 
55 71 
55 74 
55 76 
55 77 
55 79 
55 82 
55 84 
55 85 
55 88 
55 89 
55 91 
55 94 
55 96 
55 97 
55 100 
55 102 
55 103 
55 105 
55 107 
55 109 
55 111 
55 113 
55 115 
55 118 
55 119 
55 121 
55 124 
55 126 
55 128 
56 65 
56 67 
56 69 
56 72 
56 73 
56 75 
56 78 
56 80 
56 81 
56 83 
56 86 
56 87 
56 90 
56 92 
56 93 
56 95 
56 98 
56 99 
56 101 
56 104 
56 106 
56 108 
56 110 
56 112 
56 114 
56 116 
56 117 
56 120 
56 122 
56 123 
56 125 
56 127 
57 58 
57 65 
57 68 
57 70 
57 71 
57 73 
57 76 
57 77 
57 79 
57 82 
57 83 
57 86 
57 88 
57 90 
57 92 
57 93 
57 96 
57 97 
57 99 
57 102 
57 104 
57 105 
57 107 
57 110 
57 111 
57 114 
57 116 
57 117 
57 120 
57 121 
57 123 
57 125 
57 128 
58 66 
58 67 
58 69 
58 72 
58 74 
58 75 
58 78 
58 80 
58 81 
58 84 
58 85 
58 87 
58 89 
58 91 
58 94 
58 95 
58 98 
58 100 
58 101 
58 103 
58 106 
58 108 
58 109 
58 112 
58 113 
58 115 
58 118 
58 119 
58 122 
58 124 
58 126 
58 127 
59 60 
59 66 
59 67 
59 69 
59 71 
59 73 
59 75 
59 77 
59 80 
59 82 
59 84 
59 86 
59 87 
59 90 
59 92 
59 93 
59 95 
59 97 
59 99 
59 102 
59 103 
59 105 
59 108 
59 109 
59 112 
59 113 
59 116 
59 118 
59 120 
59 121 
59 124 
59 126 
59 128 
60 65 
60 68 
60 70 
60 72 
60 74 
60 76 
60 78 
60 79 
60 81 
60 83 
60 85 
60 88 
60 89 
60 91 
60 94 
60 96 
60 98 
60 100 
60 101 
60 104 
60 106 
60 107 
60 110 
60 111 
60 114 
60 115 
60 117 
60 119 
60 122 
60 123 
60 125 
60 127 
61 62 
61 65 
61 68 
61 69 
61 71 
61 73 
61 76 
61 77 
61 79 
61 82 
61 84 
61 85 
61 87 
61 90 
61 91 
61 94 
61 95 
61 98 
61 99 
61 102 
61 104 
61 106 
61 108 
61 109 
61 112 
61 114 
61 115 
61 118 
61 119 
61 122 
61 123 
61 125 
61 128 
62 66 
62 67 
62 70 
62 72 
62 74 
62 75 
62 78 
62 80 
62 81 
62 83 
62 86 
62 88 
62 89 
62 92 
62 93 
62 96 
62 97 
62 100 
62 101 
62 103 
62 105 
62 107 
62 110 
62 111 
62 113 
62 116 
62 117 
62 120 
62 121 
62 124 
62 126 
62 127 
63 64 
63 65 
63 68 
63 70 
63 71 
63 74 
63 75 
63 78 
63 79 
63 81 
63 84 
63 85 
63 87 
63 89 
63 92 
63 93 
63 95 
63 97 
63 100 
63 102 
63 104 
63 106 
63 107 
63 109 
63 112 
63 114 
63 116 
63 118 
63 120 
63 121 
63 123 
63 126 
63 127 
64 66 
64 67 
64 69 
64 72 
64 73 
64 76 
64 77 
64 80 
64 82 
64 83 
64 86 
64 88 
64 90 
64 91 
64 94 
64 96 
64 98 
64 99 
64 101 
64 103 
64 105 
64 108 
64 110 
64 111 
64 113 
64 115 
64 117 
64 119 
64 122 
64 124 
64 125 
64 128 
65 66 
67 68 
69 70 
71 72 
73 74 
75 76 
77 78 
79 80 
81 82 
83 84 
85 86 
87 88 
89 90 
91 92 
93 94 
95 96 
97 98 
99 100 
101 102 
103 104 
105 106 
107 108 
109 110 
111 112 
113 114 
115 116 
117 118 
119 120 
121 122 
123 124 
125 126 
127 128 
